; benchmark generated from python API
(set-info :status unknown)
(declare-fun R_E2_V3 () Bool)
(declare-fun W_S1_V6 () Bool)
(declare-fun W_S1_V4 () Bool)
(declare-fun W_S1_V2 () Bool)
(declare-fun W_S1_V3 () Bool)
(declare-fun W_S1_V1 () Bool)
(declare-fun R_E2_V1 () Bool)
(declare-fun R_E1_V3 () Bool)
(declare-fun R_E1_V1 () Bool)
(declare-fun R_E1_V6 () Bool)
(declare-fun R_E1_V4 () Bool)
(declare-fun R_E1_V5 () Bool)
(declare-fun R_E1_V2 () Bool)
(declare-fun DISJ_W_S1_R_E1 () Bool)
(declare-fun R_S1_V6 () Bool)
(declare-fun R_S1_V4 () Bool)
(declare-fun R_S1_V5 () Bool)
(declare-fun R_S1_V2 () Bool)
(declare-fun R_S1_V3 () Bool)
(declare-fun R_S1_V1 () Bool)
(declare-fun DISJ_W_S1_R_S1 () Bool)
(declare-fun R_E2_V6 () Bool)
(declare-fun R_E2_V4 () Bool)
(declare-fun R_E2_V5 () Bool)
(declare-fun R_E2_V2 () Bool)
(declare-fun DISJ_W_S1_R_E2 () Bool)
(declare-fun W_S1_V5 () Bool)
(assert
 (let (($x5106 (forall ((V1_0 Int) )(forall ((V3_0 Int) )(forall ((V2_0 Int) )(forall ((V5_0 Int) )(forall ((V4_0 Int) )(forall ((V6_0 Int) )(forall ((MW_S1_V1 Bool) )(forall ((MW_S1_V3 Bool) )(forall ((MW_S1_V2 Bool) )(forall ((MW_S1_V5 Bool) )(forall ((MW_S1_V4 Bool) )(forall ((MW_S1_V6 Bool) )(forall ((S1_V1_!5000 Int) )(forall ((S1_V3_!5001 Int) )(forall ((S1_V2_!5002 Int) )(forall ((E1_!4994 Int) )(forall ((E1_!4997 Int) )(forall ((E1_!4999 Int) )(forall ((S1_V5_!5003 Int) )(forall ((E2_!4995 Int) )(forall ((E2_!4996 Int) )(forall ((E2_!4998 Int) )(forall ((S1_V4_!5004 Int) )(forall ((S1_V6_!5005 Int) )(let (($x254 (= V6_0 (ite MW_S1_V6 S1_V6_!5005 V6_0))))
 (let ((?x3466 (ite MW_S1_V4 S1_V4_!5004 V4_0)))
 (let (($x3476 (= V4_0 ?x3466)))
 (let (($x4628 (= V5_0 (ite MW_S1_V5 S1_V5_!5003 V5_0))))
 (let ((?x1854 (ite MW_S1_V2 S1_V2_!5002 V2_0)))
 (let (($x674 (= V2_0 ?x1854)))
 (let ((?x1047 (ite MW_S1_V1 S1_V1_!5000 E1_!4999)))
 (let (($x2911 (= E1_!4994 ?x1047)))
 (let (($x1824 (and $x2911 (= E2_!4996 (+ 1 (ite MW_S1_V3 S1_V3_!5001 E2_!4998))) $x674 $x4628 $x3476 $x254)))
 (let (($x1070 (and (not (<= V4_0 E2_!4995)) (not (<= V2_0 E1_!4994)) (>= E2_!4996 V4_0) (>= E1_!4994 (+ (- 1) V2_0)) (not (<= V2_0 E1_!4997)) (not (<= V4_0 E2_!4998)) (not (<= V2_0 E1_!4999)) (>= ?x1047 (+ (- 1) ?x1854)) (>= (ite MW_S1_V3 S1_V3_!5001 E2_!4998) (+ (- 1) ?x3466)))))
 (let (($x5185 (or (not MW_S1_V6) W_S1_V6)))
 (let (($x3318 (not MW_S1_V4)))
 (let (($x167 (or $x3318 W_S1_V4)))
 (let (($x3215 (= E2_!4998 E2_!4995)))
 (let (($x3845 (or (not (or (not R_E2_V1) (= E1_!4997 E1_!4994))) $x3215)))
 (let (($x1441 (= E2_!4996 E2_!4998)))
 (let (($x2093 (not R_E2_V3)))
 (let (($x5435 (or $x2093 (= E2_!4995 V3_0))))
 (let (($x5838 (or (not (and (or (not R_E2_V1) (= E1_!4994 E1_!4997)) $x5435)) $x1441)))
 (let (($x1139 (or (not $x5435) (= E2_!4996 E2_!4995))))
 (let (($x1526 (not R_E1_V3)))
 (let (($x92 (or $x1526 (= E2_!4998 V3_0))))
 (let (($x5128 (not (and (or (not R_E1_V1) (= E1_!4997 V1_0)) $x92))))
 (let (($x5787 (or $x5128 (= E1_!4999 E1_!4997))))
 (let (($x505 (= E1_!4999 E1_!4994)))
 (let (($x2636 (or $x5128 $x505)))
 (let (($x5794 (= E1_!4994 E1_!4997)))
 (let (($x2322 (and $x5794 $x2636 $x5787 $x1139 $x5838 $x3845 (or (not MW_S1_V1) W_S1_V1) (or (not MW_S1_V3) W_S1_V3) (or (not MW_S1_V2) W_S1_V2) $x167 $x5185)))
 (or (not $x2322) (not $x1070) $x1824))))))))))))))))))))))))))))))
 )
 )
 )
 )
 )
 )
 )
 )
 )
 )
 )
 )
 )
 )
 )
 )
 )
 )
 )
 )
 )
 )
 )
 ))
 (let (($x2527 (and W_S1_V6 R_E1_V6)))
 (let (($x3324 (and W_S1_V4 R_E1_V4)))
 (let (($x3489 (and W_S1_V2 R_E1_V2)))
 (let (($x6059 (and W_S1_V3 R_E1_V3)))
 (let (($x4143 (and W_S1_V1 R_E1_V1)))
 (let (($x329 (= DISJ_W_S1_R_E1 (not (or $x4143 $x6059 $x3489 R_E1_V5 $x3324 $x2527)))))
 (let (($x2272 (and W_S1_V6 R_S1_V6)))
 (let (($x2433 (and W_S1_V4 R_S1_V4)))
 (let (($x2173 (and W_S1_V2 R_S1_V2)))
 (let (($x3422 (and W_S1_V3 R_S1_V3)))
 (let (($x2984 (and W_S1_V1 R_S1_V1)))
 (let (($x1138 (= DISJ_W_S1_R_S1 (not (or $x2984 $x3422 $x2173 R_S1_V5 $x2433 $x2272)))))
 (let (($x4794 (and W_S1_V6 R_E2_V6)))
 (let (($x2625 (and W_S1_V4 R_E2_V4)))
 (let (($x4625 (and W_S1_V2 R_E2_V2)))
 (let (($x245 (and W_S1_V3 R_E2_V3)))
 (let (($x554 (and W_S1_V1 R_E2_V1)))
 (let (($x5952 (= DISJ_W_S1_R_E2 (not (or $x554 $x245 $x4625 R_E2_V5 $x2625 $x4794)))))
 (let (($x2093 (not R_E2_V3)))
 (let (($x1526 (not R_E1_V3)))
 (let (($x253 (not R_E1_V1)))
 (let (($x3345 (and $x253 $x1526)))
 (let (($x1319 (or $x3345 $x2093)))
 (and (and $x1319 W_S1_V5 $x5952 $x1138 $x329 $x5106) R_E2_V3))))))))))))))))))))))))))
(check-sat)
